83 83
70 14
61 28
38 15
49 36
56 21
17 16
28 6
22 31
27 38
6 32
9 4
39 37
78 19
26 39
8 31
43 30
47 35
64 1
25 26
2 30
32 24
21 17
10 27
44 20
24 21
76 3
79 13
75 10
35 42
53 40
67 41
83 23
71 33
74 27
55 17
40 40
19 33
37 24
31 22
41 2
15 26
48 7
36 12
18 8
29 6
11 37
16 3
33 1
3 18
57 20
52 22
60 9
68 13
42 25
30 18
46 11
4 34
54 39
66 4
51 19
73 10
50 34
5 41
13 29
12 16
81 29
69 28
77 32
62 9
7 23
20 5
63 15
14 25
82 36
59 38
1 7
34 35
72 8
45 11
80 2
23 14
65 5
58 12
